Version identifier: 20.1.0.0 | 2020-11-10 | 9bedb6d68
Tried aggregator 2 times.
MIP Presolve eliminated 1716 rows and 927 columns.
MIP Presolve modified 3482 coefficients.
Aggregator did 187 substitutions.
Reduced MIP has 1503 rows, 1293 columns, and 4785 nonzeros.
Reduced MIP has 378 binaries, 915 generals, 0 SOSs, and 0 indicators.
Presolve time = 0.02 sec. (7.61 ticks)
Found incumbent of value 94.000000 after 0.03 sec. (13.11 ticks)
Probing fixed 40 vars, tightened 367 bounds.
Probing time = 0.00 sec. (1.90 ticks)
Tried aggregator 2 times.
Detecting symmetries...
MIP Presolve eliminated 600 rows and 70 columns.
MIP Presolve modified 135 coefficients.
Aggregator did 18 substitutions.
Reduced MIP has 885 rows, 1205 columns, and 2891 nonzeros.
Reduced MIP has 465 binaries, 740 generals, 0 SOSs, and 0 indicators.
Presolve time = 0.01 sec. (4.47 ticks)
Probing time = 0.00 sec. (0.24 ticks)
Clique table members: 1.
MIP emphasis: balance optimality and feasibility.
MIP search method: dynamic search.
Parallel mode: deterministic, using up to 24 threads.
Root relaxation solution time = 0.01 sec. (3.32 ticks)

        Nodes                                         Cuts/
   Node  Left     Objective  IInf  Best Integer    Best Bound    ItCnt     Gap

*     0+    0                           94.0000        0.0000           100.00%
*     0+    0                           68.0000        0.0000           100.00%
      0     0        0.0000    51       68.0000        0.0000      278  100.00%
      0     0        0.5000   116       68.0000     Cuts: 185      495   99.26%
*     0+    0                           29.0000        0.5000            98.28%
      0     0        0.5792   196       29.0000      Cuts: 91      691   98.00%
      0     0        0.6000   227       29.0000      Cuts: 78      750   97.93%
      0     0        0.6500   198       29.0000      Cuts: 95      819   97.76%
      0     0        1.2542   215       29.0000      Cuts: 89      933   95.68%
      0     0        1.7778   195       29.0000      Cuts: 84     1068   93.87%
*     0+    0                           17.0000        1.7778            89.54%
      0     0        cutoff             17.0000       17.0000     1142    0.00%
Elapsed time = 0.26 sec. (96.23 ticks, tree = 0.01 MB, solutions = 4)

Implied bound cuts applied:  28
Flow cuts applied:  4
Mixed integer rounding cuts applied:  35
Zero-half cuts applied:  208
Lift and project cuts applied:  1
Gomory fractional cuts applied:  6

Root node processing (before b&c):
  Real time             =    0.26 sec. (96.37 ticks)
Parallel b&c, 24 threads:
  Real time             =    0.00 sec. (0.00 ticks)
  Sync time (average)   =    0.00 sec.
  Wait time (average)   =    0.00 sec.
                          ------------
Total (root+branch&cut) =    0.26 sec. (96.37 ticks)

Solution status = Optimal
Solution LB = 17
Solution UB = 17
Runtime = 0.264721 seconds
	Command being timed: "/home/min/git_repos/CS598MEBProject/CNT-ILP/build/cnt -s 2 ./output/k6_n40/simC_c1_k6_n40_u3_s3_del02.input-right.cnp"
	User time (seconds): 2.62
	System time (seconds): 0.08
	Percent of CPU this job got: 933%
	Elapsed (wall clock) time (h:mm:ss or m:ss): 0:00.29
	Average shared text size (kbytes): 0
	Average unshared data size (kbytes): 0
	Average stack size (kbytes): 0
	Average total size (kbytes): 0
	Maximum resident set size (kbytes): 104544
	Average resident set size (kbytes): 0
	Major (requiring I/O) page faults: 0
	Minor (reclaiming a frame) page faults: 23061
	Voluntary context switches: 4959
	Involuntary context switches: 219
	Swaps: 0
	File system inputs: 0
	File system outputs: 16
	Socket messages sent: 0
	Socket messages received: 0
	Signals delivered: 0
	Page size (bytes): 4096
	Exit status: 0
